p tw 20 53
0 1
0 10
0 7
0 15
0 6
1 3
1 9
1 4
1 11
1 7
2 3
2 10
2 17
2 7
2 18
3 8
4 5
4 14
4 6
4 11
4 9
5 13
5 18
5 15
5 11
6 7
6 10
6 19
6 9
7 12
7 8
7 18
7 9
8 15
8 16
8 10
9 15
9 11
9 14
10 18
10 12
11 12
11 15
11 16
11 17
12 14
12 16
12 15
13 19
14 16
15 18
15 16
15 17
